21316.0
16,480,1853,357,1654,1141,224,1428,1346,842,1642,385,910,1672,833,1899,1306,1063,168,292,1316,1758,141,574,1764,1224,1293,507,1119,1759,1165,1303,1561,204,472,1267,1439,1133,1689,375,1544,1934,432,288,1890,1385,852,1198,491,986,1338,1103,1731,921,508,1637,1451,1690,873,584,1710,895,1314,663,29,1679,1478,694,1835,1001,113,1273,265,1197,1196,271,1146,422,1599,1623,758,675,1344,1486,1978,1474,323,721,1849,1644,423,1834,1351,12,668,938,1379,169,490,242,1353,1206,757,1205,659,96,1261,1615,1660,1369,883,583,1733,20,767
